(define-fun inv2 ((x!0 Int) (x!1 Int) (x!2 Int) (x!3 Int) (x!4 Int)) Bool
  (let ((a!1 (not (<= (+ x!0 (* (- 1) x!1) (* (- 1) x!3)) (- 1))))
        (a!2 (not (>= (+ x!0 (* (- 1) x!3)) (- 12))))
        (a!3 (not (<= (+ x!3 (* (- 1) x!4)) 99)))
        (a!4 (not (<= (+ x!0 (* (- 1) x!4)) 0)))
        (a!5 (not (>= (+ x!0 (* (- 1) x!4)) 1)))
        (a!6 (not (>= (+ (* 2 x!0) x!1 (* (- 2) x!3)) 1)))
        (a!7 (not (<= (+ x!0 (* (- 1) x!1) (* 2 x!3) (* (- 3) x!4)) 84)))
        (a!8 (not (<= (+ x!0 (* (- 1) x!1) (* (- 1) x!3)) (- 4))))
        (a!9 (not (<= (+ x!0 (* (- 1) x!4)) (- 1))))
        (a!10 (not (>= (+ (* 2 x!0) x!1 x!3 (* (- 3) x!4)) (- 95))))
        (a!11 (not (<= (+ x!0 (* (- 1) x!3)) (- 9)))))
    (and (or (not (>= x!2 1)) a!1 a!2)
         (not (= x!2 0))
         a!3
         (or (not (<= x!2 0)) (not (>= x!1 1)) a!4)
         (or (not (<= x!2 0)) a!5 a!6)
         a!7
         (or (not (= x!0 x!4)) (not (<= x!2 (- 1))) a!8)
         (or a!9 (not (<= x!2 (- 1))) a!10)
         (or (not (>= x!2 1)) a!1 a!5 a!11))))

